c Reduced graph for 3-FullIns_5_1 generated by Cyril Grelier
p edge 362 3853
e 1 2
e 1 3
e 1 4
e 1 7
e 1 8
e 1 11
e 1 12
e 1 15
e 1 16
e 1 19
e 1 20
e 1 23
e 1 24
e 1 27
e 1 28
e 1 33
e 1 34
e 1 35
e 1 39
e 1 40
e 1 41
e 1 45
e 1 46
e 1 47
e 1 51
e 1 52
e 1 53
e 1 54
e 1 55
e 1 65
e 1 66
e 1 67
e 1 68
e 1 73
e 1 74
e 1 75
e 1 76
e 1 77
e 1 78
e 1 89
e 1 90
e 1 91
e 1 92
e 1 101
e 1 102
e 1 105
e 1 106
e 1 107
e 1 108
e 1 109
e 1 110
e 1 111
e 1 119
e 1 120
e 1 121
e 1 122
e 1 123
e 1 124
e 1 125
e 1 126
e 1 127
e 1 128
e 1 142
e 1 144
e 1 147
e 1 148
e 1 149
e 1 150
e 1 151
e 1 152
e 1 153
e 1 154
e 1 155
e 1 156
e 1 174
e 1 175
e 1 176
e 1 180
e 1 181
e 1 182
e 1 183
e 1 184
e 1 185
e 1 186
e 1 187
e 1 188
e 1 189
e 1 211
e 1 212
e 1 215
e 1 216
e 1 217
e 1 218
e 1 229
e 1 230
e 1 231
e 1 232
e 1 233
e 1 234
e 1 235
e 1 238
e 1 239
e 1 240
e 1 241
e 1 260
e 1 267
e 1 268
e 1 271
e 1 272
e 1 275
e 1 276
e 1 277
e 1 278
e 1 300
e 1 304
e 1 305
e 1 312
e 1 313
e 1 318
e 1 319
e 1 360
e 1 361
e 1 362
e 2 31
e 2 32
e 2 56
e 2 57
e 2 63
e 2 64
e 2 79
e 2 80
e 2 87
e 2 88
e 2 93
e 2 94
e 2 99
e 2 100
e 2 129
e 2 132
e 2 133
e 2 143
e 2 145
e 2 146
e 2 158
e 2 160
e 2 161
e 2 172
e 2 173
e 2 177
e 2 178
e 2 179
e 2 191
e 2 192
e 2 195
e 2 196
e 2 207
e 2 208
e 2 209
e 2 210
e 2 213
e 2 214
e 2 219
e 2 220
e 2 223
e 2 224
e 2 236
e 2 237
e 2 242
e 2 244
e 2 245
e 2 248
e 2 249
e 2 254
e 2 255
e 2 261
e 2 262
e 2 263
e 2 264
e 2 265
e 2 266
e 2 269
e 2 270
e 2 273
e 2 274
e 2 279
e 2 281
e 2 282
e 2 283
e 2 284
e 2 285
e 2 288
e 2 289
e 2 292
e 2 293
e 2 294
e 2 295
e 2 301
e 2 302
e 2 303
e 2 306
e 2 307
e 2 308
e 2 309
e 2 310
e 2 311
e 2 314
e 2 315
e 2 316
e 2 317
e 2 321
e 2 322
e 2 325
e 2 326
e 2 327
e 2 328
e 2 333
e 2 334
e 2 335
e 2 336
e 2 337
e 2 338
e 2 339
e 2 340
e 2 341
e 2 342
e 2 343
e 2 344
e 2 345
e 2 346
e 2 347
e 2 348
e 2 349
e 2 350
e 2 351
e 2 352
e 2 353
e 2 354
e 2 355
e 2 356
e 2 357
e 2 358
e 2 359
e 2 360
e 2 361
e 2 362
e 3 6
e 3 9
e 3 10
e 3 17
e 3 18
e 3 25
e 3 26
e 3 32
e 3 36
e 3 37
e 3 38
e 3 48
e 3 49
e 3 50
e 3 56
e 3 57
e 3 69
e 3 70
e 3 71
e 3 72
e 3 79
e 3 80
e 3 93
e 3 94
e 3 97
e 3 98
e 3 112
e 3 113
e 3 114
e 3 115
e 3 116
e 3 117
e 3 118
e 3 129
e 3 132
e 3 133
e 3 157
e 3 158
e 3 160
e 3 161
e 3 164
e 3 165
e 3 166
e 3 167
e 3 168
e 3 169
e 3 170
e 3 171
e 3 191
e 3 192
e 3 195
e 3 196
e 3 221
e 3 222
e 3 223
e 3 224
e 3 227
e 3 228
e 3 242
e 3 244
e 3 245
e 3 248
e 3 249
e 3 254
e 3 255
e 3 279
e 3 284
e 3 285
e 3 288
e 3 289
e 3 292
e 3 293
e 3 294
e 3 295
e 3 320
e 3 321
e 3 322
e 3 327
e 3 328
e 3 331
e 3 332
e 3 353
e 3 358
e 3 359
e 4 5
e 4 31
e 4 58
e 4 59
e 4 81
e 4 82
e 4 95
e 4 96
e 4 130
e 4 134
e 4 135
e 4 159
e 4 162
e 4 163
e 4 172
e 4 173
e 4 193
e 4 194
e 4 197
e 4 198
e 4 207
e 4 208
e 4 219
e 4 220
e 4 225
e 4 226
e 4 243
e 4 246
e 4 247
e 4 250
e 4 251
e 4 256
e 4 257
e 4 261
e 4 263
e 4 264
e 4 280
e 4 281
e 4 282
e 4 283
e 4 286
e 4 287
e 4 290
e 4 291
e 4 296
e 4 297
e 4 298
e 4 299
e 4 302
e 4 303
e 4 306
e 4 307
e 4 320
e 4 323
e 4 324
e 4 325
e 4 326
e 4 329
e 4 330
e 4 331
e 4 332
e 4 333
e 4 334
e 4 335
e 4 336
e 4 337
e 4 340
e 4 341
e 4 344
e 4 345
e 4 346
e 4 347
e 4 348
e 4 349
e 4 350
e 4 351
e 4 352
e 4 353
e 4 354
e 4 355
e 4 356
e 4 357
e 4 358
e 4 359
e 5 6
e 5 7
e 5 8
e 5 9
e 5 10
e 5 15
e 5 16
e 5 17
e 5 18
e 5 23
e 5 24
e 5 25
e 5 26
e 5 33
e 5 34
e 5 35
e 5 36
e 5 37
e 5 38
e 5 45
e 5 46
e 5 47
e 5 48
e 5 49
e 5 50
e 5 65
e 5 66
e 5 67
e 5 68
e 5 69
e 5 70
e 5 71
e 5 72
e 5 91
e 5 92
e 5 97
e 5 98
e 5 105
e 5 106
e 5 107
e 5 108
e 5 109
e 5 110
e 5 111
e 5 112
e 5 113
e 5 114
e 5 115
e 5 116
e 5 117
e 5 118
e 5 142
e 5 149
e 5 150
e 5 151
e 5 152
e 5 153
e 5 154
e 5 155
e 5 156
e 5 157
e 5 164
e 5 165
e 5 166
e 5 167
e 5 168
e 5 169
e 5 170
e 5 171
e 5 211
e 5 212
e 5 217
e 5 218
e 5 221
e 5 222
e 5 227
e 5 228
e 5 300
e 5 318
e 5 319
e 5 320
e 5 331
e 5 332
e 6 51
e 6 52
e 6 58
e 6 59
e 6 73
e 6 74
e 6 81
e 6 82
e 6 89
e 6 90
e 6 95
e 6 96
e 6 119
e 6 121
e 6 122
e 6 130
e 6 134
e 6 135
e 6 144
e 6 147
e 6 148
e 6 159
e 6 162
e 6 163
e 6 175
e 6 176
e 6 180
e 6 181
e 6 193
e 6 194
e 6 197
e 6 198
e 6 215
e 6 216
e 6 225
e 6 226
e 6 229
e 6 230
e 6 231
e 6 232
e 6 233
e 6 238
e 6 239
e 6 243
e 6 246
e 6 247
e 6 250
e 6 251
e 6 256
e 6 257
e 6 260
e 6 267
e 6 268
e 6 271
e 6 272
e 6 275
e 6 276
e 6 277
e 6 278
e 6 280
e 6 286
e 6 287
e 6 290
e 6 291
e 6 296
e 6 297
e 6 298
e 6 299
e 6 300
e 6 304
e 6 305
e 6 312
e 6 313
e 6 318
e 6 319
e 6 320
e 6 323
e 6 324
e 6 329
e 6 330
e 6 331
e 6 332
e 7 14
e 7 21
e 7 22
e 7 31
e 7 42
e 7 43
e 7 44
e 7 59
e 7 64
e 7 81
e 7 82
e 7 85
e 7 86
e 7 87
e 7 88
e 7 130
e 7 134
e 7 135
e 7 138
e 7 139
e 7 140
e 7 141
e 7 143
e 7 145
e 7 146
e 7 173
e 7 190
e 7 197
e 7 198
e 7 203
e 7 204
e 7 207
e 7 208
e 7 213
e 7 214
e 7 250
e 7 251
e 7 256
e 7 257
e 7 261
e 7 263
e 7 264
e 7 269
e 7 270
e 7 273
e 7 274
e 7 280
e 7 296
e 7 297
e 7 301
e 7 306
e 7 307
e 7 314
e 7 315
e 7 336
e 7 337
e 7 340
e 7 341
e 7 344
e 7 349
e 7 350
e 8 13
e 8 31
e 8 58
e 8 63
e 8 83
e 8 84
e 8 131
e 8 136
e 8 137
e 8 172
e 8 190
e 8 193
e 8 194
e 8 199
e 8 200
e 8 203
e 8 204
e 8 209
e 8 210
e 8 243
e 8 246
e 8 247
e 8 252
e 8 253
e 8 258
e 8 259
e 8 262
e 8 265
e 8 266
e 8 280
e 8 286
e 8 287
e 8 296
e 8 297
e 8 301
e 8 302
e 8 303
e 8 308
e 8 309
e 8 314
e 8 315
e 8 323
e 8 324
e 8 329
e 8 330
e 8 333
e 8 334
e 8 335
e 8 338
e 8 339
e 8 342
e 8 343
e 8 344
e 8 345
e 8 346
e 8 349
e 8 350
e 8 354
e 8 355
e 8 356
e 8 357
e 9 12
e 9 14
e 9 19
e 9 20
e 9 21
e 9 22
e 9 39
e 9 40
e 9 41
e 9 42
e 9 43
e 9 44
e 9 52
e 9 59
e 9 73
e 9 74
e 9 77
e 9 78
e 9 81
e 9 82
e 9 85
e 9 86
e 9 119
e 9 121
e 9 122
e 9 125
e 9 126
e 9 127
e 9 128
e 9 130
e 9 134
e 9 135
e 9 138
e 9 139
e 9 140
e 9 141
e 9 174
e 9 180
e 9 181
e 9 186
e 9 187
e 9 190
e 9 197
e 9 198
e 9 203
e 9 204
e 9 232
e 9 233
e 9 238
e 9 239
e 9 250
e 9 251
e 9 256
e 9 257
e 9 260
e 9 275
e 9 276
e 9 280
e 9 296
e 9 297
e 10 11
e 10 13
e 10 51
e 10 58
e 10 75
e 10 76
e 10 83
e 10 84
e 10 120
e 10 123
e 10 124
e 10 131
e 10 136
e 10 137
e 10 174
e 10 175
e 10 176
e 10 182
e 10 183
e 10 186
e 10 187
e 10 190
e 10 193
e 10 194
e 10 199
e 10 200
e 10 203
e 10 204
e 10 229
e 10 230
e 10 231
e 10 234
e 10 235
e 10 240
e 10 241
e 10 243
e 10 246
e 10 247
e 10 252
e 10 253
e 10 258
e 10 259
e 10 260
e 10 267
e 10 268
e 10 275
e 10 276
e 10 280
e 10 286
e 10 287
e 10 296
e 10 297
e 10 304
e 10 305
e 10 312
e 10 313
e 10 323
e 10 324
e 10 329
e 10 330
e 11 14
e 11 17
e 11 18
e 11 21
e 11 22
e 11 36
e 11 37
e 11 38
e 11 42
e 11 43
e 11 44
e 11 57
e 11 64
e 11 71
e 11 72
e 11 79
e 11 80
e 11 85
e 11 86
e 11 87
e 11 88
e 11 115
e 11 116
e 11 117
e 11 118
e 11 129
e 11 132
e 11 133
e 11 138
e 11 139
e 11 140
e 11 141
e 11 143
e 11 145
e 11 146
e 11 157
e 11 168
e 11 169
e 11 190
e 11 195
e 11 196
e 11 203
e 11 204
e 11 213
e 11 214
e 11 248
e 11 249
e 11 254
e 11 255
e 11 269
e 11 270
e 11 273
e 11 274
e 11 279
e 11 292
e 11 293
e 11 301
e 11 314
e 11 315
e 12 13
e 12 56
e 12 63
e 12 69
e 12 70
e 12 83
e 12 84
e 12 112
e 12 113
e 12 114
e 12 131
e 12 136
e 12 137
e 12 157
e 12 164
e 12 165
e 12 168
e 12 169
e 12 190
e 12 191
e 12 192
e 12 199
e 12 200
e 12 203
e 12 204
e 12 209
e 12 210
e 12 221
e 12 222
e 12 227
e 12 228
e 12 242
e 12 244
e 12 245
e 12 252
e 12 253
e 12 258
e 12 259
e 12 262
e 12 265
e 12 266
e 12 279
e 12 284
e 12 285
e 12 292
e 12 293
e 12 301
e 12 308
e 12 309
e 12 314
e 12 315
e 12 321
e 12 322
e 12 327
e 12 328
e 12 338
e 12 339
e 12 342
e 12 343
e 13 14
e 13 15
e 13 16
e 13 17
e 13 18
e 13 19
e 13 20
e 13 21
e 13 22
e 13 33
e 13 34
e 13 35
e 13 36
e 13 37
e 13 38
e 13 39
e 13 40
e 13 41
e 13 42
e 13 43
e 13 44
e 13 67
e 13 68
e 13 71
e 13 72
e 13 77
e 13 78
e 13 85
e 13 86
e 13 108
e 13 109
e 13 110
e 13 111
e 13 115
e 13 116
e 13 117
e 13 118
e 13 125
e 13 126
e 13 127
e 13 128
e 13 138
e 13 139
e 13 140
e 13 141
e 13 142
e 13 153
e 13 154
e 13 157
e 13 168
e 13 169
e 13 174
e 13 186
e 13 187
e 13 190
e 13 203
e 13 204
e 14 65
e 14 66
e 14 69
e 14 70
e 14 75
e 14 76
e 14 83
e 14 84
e 14 105
e 14 106
e 14 107
e 14 112
e 14 113
e 14 114
e 14 120
e 14 123
e 14 124
e 14 131
e 14 136
e 14 137
e 14 142
e 14 149
e 14 150
e 14 153
e 14 154
e 14 157
e 14 164
e 14 165
e 14 168
e 14 169
e 14 174
e 14 182
e 14 183
e 14 186
e 14 187
e 14 190
e 14 199
e 14 200
e 14 203
e 14 204
e 14 211
e 14 212
e 14 217
e 14 218
e 14 221
e 14 222
e 14 227
e 14 228
e 14 234
e 14 235
e 14 240
e 14 241
e 14 252
e 14 253
e 14 258
e 14 259
e 15 30
e 15 31
e 15 58
e 15 60
e 15 61
e 15 62
e 15 63
e 15 84
e 15 96
e 15 100
e 15 103
e 15 104
e 15 131
e 15 136
e 15 137
e 15 159
e 15 162
e 15 163
e 15 172
e 15 177
e 15 178
e 15 179
e 15 194
e 15 199
e 15 200
e 15 210
e 15 220
e 15 225
e 15 226
e 15 236
e 15 237
e 15 243
e 15 246
e 15 247
e 15 262
e 15 265
e 15 266
e 15 281
e 15 282
e 15 283
e 15 286
e 15 287
e 15 303
e 15 308
e 15 309
e 15 325
e 15 326
e 15 333
e 15 334
e 15 335
e 15 345
e 15 346
e 16 29
e 16 31
e 16 58
e 16 60
e 16 61
e 16 62
e 16 63
e 16 83
e 16 95
e 16 99
e 16 131
e 16 136
e 16 137
e 16 159
e 16 162
e 16 163
e 16 172
e 16 177
e 16 178
e 16 179
e 16 193
e 16 201
e 16 202
e 16 209
e 16 219
e 16 243
e 16 246
e 16 247
e 16 252
e 16 253
e 16 262
e 16 265
e 16 266
e 16 281
e 16 282
e 16 283
e 16 290
e 16 291
e 16 302
e 16 310
e 16 311
e 16 323
e 16 324
e 16 333
e 16 334
e 16 335
e 16 338
e 16 339
e 16 347
e 16 348
e 16 354
e 16 355
e 17 28
e 17 30
e 17 51
e 17 53
e 17 54
e 17 55
e 17 58
e 17 60
e 17 61
e 17 62
e 17 76
e 17 84
e 17 90
e 17 96
e 17 101
e 17 102
e 17 103
e 17 104
e 17 120
e 17 123
e 17 124
e 17 131
e 17 136
e 17 137
e 17 144
e 17 147
e 17 148
e 17 159
e 17 162
e 17 163
e 17 176
e 17 182
e 17 183
e 17 194
e 17 199
e 17 200
e 17 215
e 17 216
e 17 225
e 17 226
e 17 229
e 17 230
e 17 231
e 17 243
e 17 246
e 17 247
e 17 267
e 17 268
e 17 286
e 17 287
e 18 27
e 18 29
e 18 51
e 18 53
e 18 54
e 18 55
e 18 58
e 18 60
e 18 61
e 18 62
e 18 75
e 18 83
e 18 89
e 18 95
e 18 120
e 18 123
e 18 124
e 18 131
e 18 136
e 18 137
e 18 144
e 18 147
e 18 148
e 18 159
e 18 162
e 18 163
e 18 175
e 18 184
e 18 185
e 18 193
e 18 201
e 18 202
e 18 229
e 18 230
e 18 231
e 18 234
e 18 235
e 18 243
e 18 246
e 18 247
e 18 252
e 18 253
e 18 271
e 18 272
e 18 290
e 18 291
e 18 304
e 18 305
e 18 323
e 18 324
e 19 26
e 19 30
e 19 48
e 19 49
e 19 50
e 19 56
e 19 60
e 19 61
e 19 62
e 19 63
e 19 70
e 19 84
e 19 94
e 19 97
e 19 98
e 19 100
e 19 103
e 19 104
e 19 112
e 19 113
e 19 114
e 19 131
e 19 136
e 19 137
e 19 158
e 19 160
e 19 161
e 19 164
e 19 165
e 19 177
e 19 178
e 19 179
e 19 192
e 19 199
e 19 200
e 19 210
e 19 223
e 19 224
e 19 236
e 19 237
e 19 242
e 19 244
e 19 245
e 19 262
e 19 265
e 19 266
e 19 284
e 19 285
e 19 308
e 19 309
e 20 25
e 20 29
e 20 48
e 20 49
e 20 50
e 20 56
e 20 60
e 20 61
e 20 62
e 20 63
e 20 69
e 20 83
e 20 93
e 20 99
e 20 112
e 20 113
e 20 114
e 20 131
e 20 136
e 20 137
e 20 158
e 20 160
e 20 161
e 20 166
e 20 167
e 20 177
e 20 178
e 20 179
e 20 191
e 20 201
e 20 202
e 20 209
e 20 221
e 20 222
e 20 242
e 20 244
e 20 245
e 20 252
e 20 253
e 20 262
e 20 265
e 20 266
e 20 288
e 20 289
e 20 310
e 20 311
e 20 321
e 20 322
e 20 338
e 20 339
e 21 24
e 21 26
e 21 28
e 21 30
e 21 45
e 21 46
e 21 47
e 21 48
e 21 49
e 21 50
e 21 53
e 21 54
e 21 55
e 21 60
e 21 61
e 21 62
e 21 66
e 21 70
e 21 76
e 21 84
e 21 91
e 21 92
e 21 97
e 21 98
e 21 101
e 21 102
e 21 103
e 21 104
e 21 105
e 21 106
e 21 107
e 21 112
e 21 113
e 21 114
e 21 120
e 21 123
e 21 124
e 21 131
e 21 136
e 21 137
e 21 149
e 21 150
e 21 164
e 21 165
e 21 182
e 21 183
e 21 199
e 21 200
e 22 23
e 22 25
e 22 27
e 22 29
e 22 45
e 22 46
e 22 47
e 22 48
e 22 49
e 22 50
e 22 53
e 22 54
e 22 55
e 22 60
e 22 61
e 22 62
e 22 65
e 22 69
e 22 75
e 22 83
e 22 105
e 22 106
e 22 107
e 22 112
e 22 113
e 22 114
e 22 120
e 22 123
e 22 124
e 22 131
e 22 136
e 22 137
e 22 151
e 22 152
e 22 166
e 22 167
e 22 184
e 22 185
e 22 201
e 22 202
e 22 211
e 22 212
e 22 221
e 22 222
e 22 234
e 22 235
e 22 252
e 22 253
e 23 30
e 23 31
e 23 42
e 23 43
e 23 44
e 23 60
e 23 61
e 23 62
e 23 82
e 23 85
e 23 86
e 23 88
e 23 96
e 23 100
e 23 103
e 23 104
e 23 130
e 23 134
e 23 135
e 23 143
e 23 145
e 23 146
e 23 159
e 23 162
e 23 163
e 23 177
e 23 178
e 23 179
e 23 197
e 23 198
e 23 208
e 23 213
e 23 214
e 23 220
e 23 225
e 23 226
e 23 236
e 23 237
e 23 261
e 23 263
e 23 264
e 23 281
e 23 282
e 23 283
e 23 306
e 23 307
e 23 325
e 23 326
e 24 29
e 24 31
e 24 42
e 24 43
e 24 44
e 24 60
e 24 61
e 24 62
e 24 81
e 24 87
e 24 95
e 24 99
e 24 130
e 24 134
e 24 135
e 24 138
e 24 139
e 24 143
e 24 145
e 24 146
e 24 159
e 24 162
e 24 163
e 24 177
e 24 178
e 24 179
e 24 201
e 24 202
e 24 207
e 24 219
e 24 250
e 24 251
e 24 261
e 24 263
e 24 264
e 24 269
e 24 270
e 24 281
e 24 282
e 24 283
e 24 290
e 24 291
e 24 310
e 24 311
e 24 336
e 24 337
e 24 347
e 24 348
e 25 28
e 25 30
e 25 39
e 25 40
e 25 41
e 25 42
e 25 43
e 25 44
e 25 53
e 25 54
e 25 55
e 25 60
e 25 61
e 25 62
e 25 74
e 25 77
e 25 78
e 25 82
e 25 85
e 25 86
e 25 90
e 25 96
e 25 101
e 25 102
e 25 103
e 25 104
e 25 119
e 25 121
e 25 122
e 25 130
e 25 134
e 25 135
e 25 144
e 25 147
e 25 148
e 25 159
e 25 162
e 25 163
e 25 180
e 25 181
e 25 197
e 25 198
e 25 215
e 25 216
e 25 225
e 25 226
e 26 27
e 26 29
e 26 39
e 26 40
e 26 41
e 26 42
e 26 43
e 26 44
e 26 53
e 26 54
e 26 55
e 26 60
e 26 61
e 26 62
e 26 73
e 26 81
e 26 89
e 26 95
e 26 119
e 26 121
e 26 122
e 26 125
e 26 126
e 26 130
e 26 134
e 26 135
e 26 138
e 26 139
e 26 144
e 26 147
e 26 148
e 26 159
e 26 162
e 26 163
e 26 184
e 26 185
e 26 201
e 26 202
e 26 232
e 26 233
e 26 250
e 26 251
e 26 271
e 26 272
e 26 290
e 26 291
e 27 30
e 27 36
e 27 37
e 27 38
e 27 42
e 27 43
e 27 44
e 27 48
e 27 49
e 27 50
e 27 60
e 27 61
e 27 62
e 27 71
e 27 72
e 27 80
e 27 85
e 27 86
e 27 88
e 27 94
e 27 97
e 27 98
e 27 100
e 27 103
e 27 104
e 27 129
e 27 132
e 27 133
e 27 143
e 27 145
e 27 146
e 27 158
e 27 160
e 27 161
e 27 177
e 27 178
e 27 179
e 27 195
e 27 196
e 27 213
e 27 214
e 27 223
e 27 224
e 27 236
e 27 237
e 28 29
e 28 36
e 28 37
e 28 38
e 28 42
e 28 43
e 28 44
e 28 48
e 28 49
e 28 50
e 28 60
e 28 61
e 28 62
e 28 79
e 28 87
e 28 93
e 28 99
e 28 115
e 28 116
e 28 129
e 28 132
e 28 133
e 28 138
e 28 139
e 28 143
e 28 145
e 28 146
e 28 158
e 28 160
e 28 161
e 28 166
e 28 167
e 28 177
e 28 178
e 28 179
e 28 201
e 28 202
e 28 248
e 28 249
e 28 269
e 28 270
e 28 288
e 28 289
e 28 310
e 28 311
e 29 30
e 29 33
e 29 34
e 29 35
e 29 36
e 29 37
e 29 38
e 29 39
e 29 40
e 29 41
e 29 42
e 29 43
e 29 44
e 29 45
e 29 46
e 29 47
e 29 48
e 29 49
e 29 50
e 29 53
e 29 54
e 29 55
e 29 60
e 29 61
e 29 62
e 29 67
e 29 68
e 29 71
e 29 72
e 29 77
e 29 78
e 29 85
e 29 86
e 29 91
e 29 92
e 29 97
e 29 98
e 29 101
e 29 102
e 29 103
e 29 104
e 30 33
e 30 34
e 30 35
e 30 36
e 30 37
e 30 38
e 30 39
e 30 40
e 30 41
e 30 42
e 30 43
e 30 44
e 30 45
e 30 46
e 30 47
e 30 48
e 30 49
e 30 50
e 30 53
e 30 54
e 30 55
e 30 60
e 30 61
e 30 62
e 30 108
e 30 109
e 30 115
e 30 116
e 30 125
e 30 126
e 30 138
e 30 139
e 30 151
e 30 152
e 30 166
e 30 167
e 30 184
e 30 185
e 30 201
e 30 202
e 31 33
e 31 34
e 31 35
e 31 45
e 31 46
e 31 47
e 31 65
e 31 66
e 31 67
e 31 68
e 31 91
e 31 92
e 31 105
e 31 106
e 31 107
e 31 108
e 31 109
e 31 110
e 31 111
e 31 142
e 31 149
e 31 150
e 31 151
e 31 152
e 31 153
e 31 154
e 31 155
e 31 156
e 31 211
e 31 212
e 31 217
e 31 218
e 31 300
e 31 318
e 31 319
e 32 51
e 32 52
e 32 73
e 32 74
e 32 89
e 32 90
e 32 119
e 32 121
e 32 122
e 32 144
e 32 147
e 32 148
e 32 175
e 32 176
e 32 180
e 32 181
e 32 215
e 32 216
e 32 229
e 32 230
e 32 231
e 32 232
e 32 233
e 32 238
e 32 239
e 32 260
e 32 267
e 32 268
e 32 271
e 32 272
e 32 275
e 32 276
e 32 277
e 32 278
e 32 300
e 32 304
e 32 305
e 32 312
e 32 313
e 32 318
e 32 319
e 33 58
e 33 61
e 33 62
e 33 63
e 33 83
e 33 84
e 33 95
e 33 96
e 33 99
e 33 100
e 33 136
e 33 137
e 33 162
e 33 163
e 33 172
e 33 178
e 33 179
e 33 193
e 33 194
e 33 209
e 33 210
e 33 219
e 33 220
e 33 246
e 33 247
e 33 265
e 33 266
e 33 282
e 33 283
e 33 302
e 33 303
e 33 334
e 33 335
e 34 58
e 34 60
e 34 62
e 34 63
e 34 83
e 34 84
e 34 95
e 34 96
e 34 99
e 34 100
e 34 131
e 34 137
e 34 159
e 34 163
e 34 172
e 34 177
e 34 179
e 34 193
e 34 194
e 34 209
e 34 210
e 34 219
e 34 220
e 34 243
e 34 247
e 34 262
e 34 266
e 34 281
e 34 283
e 34 302
e 34 303
e 34 333
e 34 335
e 35 58
e 35 60
e 35 61
e 35 63
e 35 83
e 35 84
e 35 95
e 35 96
e 35 99
e 35 100
e 35 131
e 35 136
e 35 159
e 35 162
e 35 172
e 35 177
e 35 178
e 35 193
e 35 194
e 35 209
e 35 210
e 35 219
e 35 220
e 35 243
e 35 246
e 35 262
e 35 265
e 35 281
e 35 282
e 35 302
e 35 303
e 35 333
e 35 334
e 36 51
e 36 54
e 36 55
e 36 58
e 36 61
e 36 62
e 36 75
e 36 76
e 36 83
e 36 84
e 36 89
e 36 90
e 36 95
e 36 96
e 36 123
e 36 124
e 36 136
e 36 137
e 36 147
e 36 148
e 36 162
e 36 163
e 36 175
e 36 176
e 36 193
e 36 194
e 36 230
e 36 231
e 36 246
e 36 247
e 37 51
e 37 53
e 37 55
e 37 58
e 37 60
e 37 62
e 37 75
e 37 76
e 37 83
e 37 84
e 37 89
e 37 90
e 37 95
e 37 96
e 37 120
e 37 124
e 37 131
e 37 137
e 37 144
e 37 148
e 37 159
e 37 163
e 37 175
e 37 176
e 37 193
e 37 194
e 37 229
e 37 231
e 37 243
e 37 247
e 38 51
e 38 53
e 38 54
e 38 58
e 38 60
e 38 61
e 38 75
e 38 76
e 38 83
e 38 84
e 38 89
e 38 90
e 38 95
e 38 96
e 38 120
e 38 123
e 38 131
e 38 136
e 38 144
e 38 147
e 38 159
e 38 162
e 38 175
e 38 176
e 38 193
e 38 194
e 38 229
e 38 230
e 38 243
e 38 246
e 39 49
e 39 50
e 39 56
e 39 61
e 39 62
e 39 63
e 39 69
e 39 70
e 39 83
e 39 84
e 39 93
e 39 94
e 39 99
e 39 100
e 39 113
e 39 114
e 39 136
e 39 137
e 39 160
e 39 161
e 39 178
e 39 179
e 39 191
e 39 192
e 39 209
e 39 210
e 39 244
e 39 245
e 39 265
e 39 266
e 40 48
e 40 50
e 40 56
e 40 60
e 40 62
e 40 63
e 40 69
e 40 70
e 40 83
e 40 84
e 40 93
e 40 94
e 40 99
e 40 100
e 40 112
e 40 114
e 40 131
e 40 137
e 40 158
e 40 161
e 40 177
e 40 179
e 40 191
e 40 192
e 40 209
e 40 210
e 40 242
e 40 245
e 40 262
e 40 266
e 41 48
e 41 49
e 41 56
e 41 60
e 41 61
e 41 63
e 41 69
e 41 70
e 41 83
e 41 84
e 41 93
e 41 94
e 41 99
e 41 100
e 41 112
e 41 113
e 41 131
e 41 136
e 41 158
e 41 160
e 41 177
e 41 178
e 41 191
e 41 192
e 41 209
e 41 210
e 41 242
e 41 244
e 41 262
e 41 265
e 42 46
e 42 47
e 42 49
e 42 50
e 42 54
e 42 55
e 42 61
e 42 62
e 42 65
e 42 66
e 42 69
e 42 70
e 42 75
e 42 76
e 42 83
e 42 84
e 42 106
e 42 107
e 42 113
e 42 114
e 42 123
e 42 124
e 42 136
e 42 137
e 43 45
e 43 47
e 43 48
e 43 50
e 43 53
e 43 55
e 43 60
e 43 62
e 43 65
e 43 66
e 43 69
e 43 70
e 43 75
e 43 76
e 43 83
e 43 84
e 43 105
e 43 107
e 43 112
e 43 114
e 43 120
e 43 124
e 43 131
e 43 137
e 44 45
e 44 46
e 44 48
e 44 49
e 44 53
e 44 54
e 44 60
e 44 61
e 44 65
e 44 66
e 44 69
e 44 70
e 44 75
e 44 76
e 44 83
e 44 84
e 44 105
e 44 106
e 44 112
e 44 113
e 44 120
e 44 123
e 44 131
e 44 136
e 45 61
e 45 62
e 45 81
e 45 82
e 45 87
e 45 88
e 45 95
e 45 96
e 45 99
e 45 100
e 45 134
e 45 135
e 45 145
e 45 146
e 45 162
e 45 163
e 45 178
e 45 179
e 45 207
e 45 208
e 45 219
e 45 220
e 45 263
e 45 264
e 45 282
e 45 283
e 46 60
e 46 62
e 46 81
e 46 82
e 46 87
e 46 88
e 46 95
e 46 96
e 46 99
e 46 100
e 46 130
e 46 135
e 46 143
e 46 146
e 46 159
e 46 163
e 46 177
e 46 179
e 46 207
e 46 208
e 46 219
e 46 220
e 46 261
e 46 264
e 46 281
e 46 283
e 47 60
e 47 61
e 47 81
e 47 82
e 47 87
e 47 88
e 47 95
e 47 96
e 47 99
e 47 100
e 47 130
e 47 134
e 47 143
e 47 145
e 47 159
e 47 162
e 47 177
e 47 178
e 47 207
e 47 208
e 47 219
e 47 220
e 47 261
e 47 263
e 47 281
e 47 282
e 48 54
e 48 55
e 48 61
e 48 62
e 48 73
e 48 74
e 48 81
e 48 82
e 48 89
e 48 90
e 48 95
e 48 96
e 48 121
e 48 122
e 48 134
e 48 135
e 48 147
e 48 148
e 48 162
e 48 163
e 49 53
e 49 55
e 49 60
e 49 62
e 49 73
e 49 74
e 49 81
e 49 82
e 49 89
e 49 90
e 49 95
e 49 96
e 49 119
e 49 122
e 49 130
e 49 135
e 49 144
e 49 148
e 49 159
e 49 163
e 50 53
e 50 54
e 50 60
e 50 61
e 50 73
e 50 74
e 50 81
e 50 82
e 50 89
e 50 90
e 50 95
e 50 96
e 50 119
e 50 121
e 50 130
e 50 134
e 50 144
e 50 147
e 50 159
e 50 162
e 51 57
e 51 71
e 51 72
e 51 79
e 51 80
e 51 115
e 51 116
e 51 117
e 51 118
e 51 129
e 51 132
e 51 133
e 51 157
e 51 168
e 51 169
e 51 195
e 51 196
e 51 248
e 51 249
e 51 254
e 51 255
e 51 279
e 51 292
e 51 293
e 52 56
e 52 69
e 52 70
e 52 112
e 52 113
e 52 114
e 52 157
e 52 164
e 52 165
e 52 168
e 52 169
e 52 191
e 52 192
e 52 221
e 52 222
e 52 227
e 52 228
e 52 242
e 52 244
e 52 245
e 52 279
e 52 284
e 52 285
e 52 292
e 52 293
e 52 321
e 52 322
e 52 327
e 52 328
e 53 61
e 53 62
e 53 79
e 53 80
e 53 87
e 53 88
e 53 93
e 53 94
e 53 99
e 53 100
e 53 132
e 53 133
e 53 145
e 53 146
e 53 160
e 53 161
e 53 178
e 53 179
e 54 60
e 54 62
e 54 79
e 54 80
e 54 87
e 54 88
e 54 93
e 54 94
e 54 99
e 54 100
e 54 129
e 54 133
e 54 143
e 54 146
e 54 158
e 54 161
e 54 177
e 54 179
e 55 60
e 55 61
e 55 79
e 55 80
e 55 87
e 55 88
e 55 93
e 55 94
e 55 99
e 55 100
e 55 129
e 55 132
e 55 143
e 55 145
e 55 158
e 55 160
e 55 177
e 55 178
e 56 73
e 56 74
e 56 77
e 56 78
e 56 119
e 56 121
e 56 122
e 56 125
e 56 126
e 56 127
e 56 128
e 56 174
e 56 180
e 56 181
e 56 186
e 56 187
e 56 232
e 56 233
e 56 238
e 56 239
e 56 260
e 56 275
e 56 276
e 57 75
e 57 76
e 57 120
e 57 123
e 57 124
e 57 174
e 57 175
e 57 176
e 57 182
e 57 183
e 57 186
e 57 187
e 57 229
e 57 230
e 57 231
e 57 234
e 57 235
e 57 240
e 57 241
e 57 260
e 57 267
e 57 268
e 57 275
e 57 276
e 57 304
e 57 305
e 57 312
e 57 313
e 58 67
e 58 68
e 58 71
e 58 72
e 58 108
e 58 109
e 58 110
e 58 111
e 58 115
e 58 116
e 58 117
e 58 118
e 58 142
e 58 153
e 58 154
e 58 157
e 58 168
e 58 169
e 59 65
e 59 66
e 59 69
e 59 70
e 59 105
e 59 106
e 59 107
e 59 112
e 59 113
e 59 114
e 59 142
e 59 149
e 59 150
e 59 153
e 59 154
e 59 157
e 59 164
e 59 165
e 59 168
e 59 169
e 59 211
e 59 212
e 59 217
e 59 218
e 59 221
e 59 222
e 59 227
e 59 228
e 60 61
e 60 62
e 61 62
e 63 67
e 63 68
e 63 77
e 63 78
e 63 108
e 63 109
e 63 110
e 63 111
e 63 125
e 63 126
e 63 127
e 63 128
e 63 142
e 63 153
e 63 154
e 63 174
e 63 186
e 63 187
e 64 65
e 64 66
e 64 75
e 64 76
e 64 105
e 64 106
e 64 107
e 64 120
e 64 123
e 64 124
e 64 142
e 64 149
e 64 150
e 64 153
e 64 154
e 64 174
e 64 182
e 64 183
e 64 186
e 64 187
e 64 211
e 64 212
e 64 217
e 64 218
e 64 234
e 64 235
e 64 240
e 64 241
e 65 82
e 65 85
e 65 86
e 65 88
e 65 130
e 65 134
e 65 135
e 65 143
e 65 145
e 65 146
e 65 173
e 65 197
e 65 198
e 65 208
e 65 213
e 65 214
e 65 261
e 65 263
e 65 264
e 65 306
e 65 307
e 66 81
e 66 87
e 66 130
e 66 134
e 66 135
e 66 138
e 66 139
e 66 143
e 66 145
e 66 146
e 66 173
e 66 207
e 66 250
e 66 251
e 66 261
e 66 263
e 66 264
e 66 269
e 66 270
e 66 336
e 66 337
e 67 83
e 67 95
e 67 99
e 67 172
e 67 193
e 67 202
e 67 206
e 67 209
e 67 219
e 67 253
e 67 259
e 67 291
e 67 299
e 67 302
e 67 311
e 67 317
e 67 324
e 67 330
e 67 339
e 67 343
e 67 348
e 67 352
e 67 355
e 67 357
e 68 83
e 68 95
e 68 99
e 68 172
e 68 193
e 68 201
e 68 205
e 68 209
e 68 219
e 68 252
e 68 258
e 68 290
e 68 298
e 68 302
e 68 310
e 68 316
e 68 323
e 68 329
e 68 338
e 68 342
e 68 347
e 68 351
e 68 354
e 68 356
e 69 74
e 69 77
e 69 78
e 69 82
e 69 85
e 69 86
e 69 119
e 69 121
e 69 122
e 69 130
e 69 134
e 69 135
e 69 180
e 69 181
e 69 197
e 69 198
e 70 73
e 70 81
e 70 119
e 70 121
e 70 122
e 70 125
e 70 126
e 70 130
e 70 134
e 70 135
e 70 138
e 70 139
e 70 232
e 70 233
e 70 250
e 70 251
e 71 75
e 71 83
e 71 89
e 71 95
e 71 175
e 71 185
e 71 189
e 71 193
e 71 202
e 71 206
e 71 235
e 71 241
e 71 253
e 71 259
e 71 272
e 71 278
e 71 291
e 71 299
e 71 305
e 71 313
e 71 324
e 71 330
e 72 75
e 72 83
e 72 89
e 72 95
e 72 175
e 72 184
e 72 188
e 72 193
e 72 201
e 72 205
e 72 234
e 72 240
e 72 252
e 72 258
e 72 271
e 72 277
e 72 290
e 72 298
e 72 304
e 72 312
e 72 323
e 72 329
e 73 94
e 73 97
e 73 98
e 73 112
e 73 113
e 73 114
e 73 158
e 73 160
e 73 161
e 73 164
e 73 165
e 73 192
e 73 223
e 73 224
e 73 242
e 73 244
e 73 245
e 73 284
e 73 285
e 74 93
e 74 112
e 74 113
e 74 114
e 74 158
e 74 160
e 74 161
e 74 166
e 74 167
e 74 191
e 74 221
e 74 222
e 74 242
e 74 244
e 74 245
e 74 288
e 74 289
e 74 321
e 74 322
e 75 80
e 75 85
e 75 86
e 75 88
e 75 129
e 75 132
e 75 133
e 75 143
e 75 145
e 75 146
e 75 195
e 75 196
e 75 213
e 75 214
e 76 79
e 76 87
e 76 115
e 76 116
e 76 129
e 76 132
e 76 133
e 76 138
e 76 139
e 76 143
e 76 145
e 76 146
e 76 248
e 76 249
e 76 269
e 76 270
e 77 83
e 77 93
e 77 99
e 77 167
e 77 171
e 77 191
e 77 202
e 77 206
e 77 209
e 77 222
e 77 228
e 77 253
e 77 259
e 77 289
e 77 295
e 77 311
e 77 317
e 77 322
e 77 328
e 77 339
e 77 343
e 78 83
e 78 93
e 78 99
e 78 166
e 78 170
e 78 191
e 78 201
e 78 205
e 78 209
e 78 221
e 78 227
e 78 252
e 78 258
e 78 288
e 78 294
e 78 310
e 78 316
e 78 321
e 78 327
e 78 338
e 78 342
e 79 90
e 79 101
e 79 102
e 79 120
e 79 123
e 79 124
e 79 144
e 79 147
e 79 148
e 79 176
e 79 182
e 79 183
e 79 215
e 79 216
e 79 229
e 79 230
e 79 231
e 79 267
e 79 268
e 80 89
e 80 120
e 80 123
e 80 124
e 80 144
e 80 147
e 80 148
e 80 175
e 80 184
e 80 185
e 80 229
e 80 230
e 80 231
e 80 234
e 80 235
e 80 271
e 80 272
e 80 304
e 80 305
e 81 91
e 81 92
e 81 97
e 81 98
e 81 105
e 81 106
e 81 107
e 81 112
e 81 113
e 81 114
e 81 149
e 81 150
e 81 164
e 81 165
e 82 105
e 82 106
e 82 107
e 82 112
e 82 113
e 82 114
e 82 151
e 82 152
e 82 166
e 82 167
e 82 211
e 82 212
e 82 221
e 82 222
e 83 85
e 83 86
e 84 108
e 84 109
e 84 115
e 84 116
e 84 125
e 84 126
e 84 138
e 84 139
e 85 152
e 85 156
e 85 167
e 85 171
e 85 185
e 85 189
e 85 202
e 85 206
e 85 212
e 85 218
e 85 222
e 85 228
e 85 235
e 85 241
e 85 253
e 85 259
e 86 151
e 86 155
e 86 166
e 86 170
e 86 184
e 86 188
e 86 201
e 86 205
e 86 211
e 86 217
e 86 221
e 86 227
e 86 234
e 86 240
e 86 252
e 86 258
e 87 91
e 87 92
e 87 101
e 87 102
e 87 105
e 87 106
e 87 107
e 87 120
e 87 123
e 87 124
e 87 149
e 87 150
e 87 182
e 87 183
e 88 105
e 88 106
e 88 107
e 88 120
e 88 123
e 88 124
e 88 151
e 88 152
e 88 184
e 88 185
e 88 211
e 88 212
e 88 234
e 88 235
e 89 94
e 89 97
e 89 98
e 89 129
e 89 132
e 89 133
e 89 158
e 89 160
e 89 161
e 89 195
e 89 196
e 89 223
e 89 224
e 90 93
e 90 115
e 90 116
e 90 129
e 90 132
e 90 133
e 90 158
e 90 160
e 90 161
e 90 166
e 90 167
e 90 248
e 90 249
e 90 288
e 90 289
e 91 95
e 91 99
e 91 139
e 91 141
e 91 202
e 91 206
e 91 207
e 91 219
e 91 251
e 91 257
e 91 270
e 91 274
e 91 291
e 91 299
e 91 311
e 91 317
e 91 337
e 91 341
e 91 348
e 91 352
e 92 95
e 92 99
e 92 138
e 92 140
e 92 201
e 92 205
e 92 207
e 92 219
e 92 250
e 92 256
e 92 269
e 92 273
e 92 290
e 92 298
e 92 310
e 92 316
e 92 336
e 92 340
e 92 347
e 92 351
e 93 101
e 93 102
e 93 119
e 93 121
e 93 122
e 93 144
e 93 147
e 93 148
e 93 180
e 93 181
e 93 215
e 93 216
e 94 119
e 94 121
e 94 122
e 94 125
e 94 126
e 94 144
e 94 147
e 94 148
e 94 184
e 94 185
e 94 232
e 94 233
e 94 271
e 94 272
e 95 97
e 95 98
e 96 108
e 96 109
e 96 115
e 96 116
e 96 151
e 96 152
e 96 166
e 96 167
e 97 126
e 97 128
e 97 139
e 97 141
e 97 185
e 97 189
e 97 202
e 97 206
e 97 233
e 97 239
e 97 251
e 97 257
e 97 272
e 97 278
e 97 291
e 97 299
e 98 125
e 98 127
e 98 138
e 98 140
e 98 184
e 98 188
e 98 201
e 98 205
e 98 232
e 98 238
e 98 250
e 98 256
e 98 271
e 98 277
e 98 290
e 98 298
e 99 101
e 99 102
e 100 108
e 100 109
e 100 125
e 100 126
e 100 151
e 100 152
e 100 184
e 100 185
e 101 116
e 101 118
e 101 139
e 101 141
e 101 167
e 101 171
e 101 202
e 101 206
e 101 249
e 101 255
e 101 270
e 101 274
e 101 289
e 101 295
e 101 311
e 101 317
e 102 115
e 102 117
e 102 138
e 102 140
e 102 166
e 102 170
e 102 201
e 102 205
e 102 248
e 102 254
e 102 269
e 102 273
e 102 288
e 102 294
e 102 310
e 102 316
e 103 109
e 103 111
e 103 116
e 103 118
e 103 126
e 103 128
e 103 139
e 103 141
e 103 152
e 103 156
e 103 167
e 103 171
e 103 185
e 103 189
e 103 202
e 103 206
e 104 108
e 104 110
e 104 115
e 104 117
e 104 125
e 104 127
e 104 138
e 104 140
e 104 151
e 104 155
e 104 166
e 104 170
e 104 184
e 104 188
e 104 201
e 104 205
e 105 134
e 105 135
e 105 145
e 105 146
e 105 173
e 105 207
e 105 208
e 105 263
e 105 264
e 106 130
e 106 135
e 106 143
e 106 146
e 106 173
e 106 207
e 106 208
e 106 261
e 106 264
e 107 130
e 107 134
e 107 143
e 107 145
e 107 173
e 107 207
e 107 208
e 107 261
e 107 263
e 108 172
e 108 194
e 108 200
e 108 210
e 108 220
e 108 226
e 108 237
e 108 287
e 108 303
e 108 309
e 108 326
e 108 346
e 109 172
e 109 194
e 109 199
e 109 210
e 109 220
e 109 225
e 109 236
e 109 286
e 109 303
e 109 308
e 109 325
e 109 345
e 110 172
e 110 200
e 110 206
e 110 226
e 110 237
e 110 259
e 110 287
e 110 299
e 110 309
e 110 317
e 110 326
e 110 330
e 110 343
e 110 346
e 110 352
e 110 357
e 111 172
e 111 199
e 111 205
e 111 225
e 111 236
e 111 258
e 111 286
e 111 298
e 111 308
e 111 316
e 111 325
e 111 329
e 111 342
e 111 345
e 111 351
e 111 356
e 112 121
e 112 122
e 112 134
e 112 135
e 113 119
e 113 122
e 113 130
e 113 135
e 114 119
e 114 121
e 114 130
e 114 134
e 115 176
e 115 183
e 115 194
e 115 200
e 115 216
e 115 226
e 115 268
e 115 287
e 116 176
e 116 182
e 116 194
e 116 199
e 116 215
e 116 225
e 116 267
e 116 286
e 117 183
e 117 189
e 117 200
e 117 206
e 117 216
e 117 226
e 117 241
e 117 259
e 117 268
e 117 278
e 117 287
e 117 299
e 117 313
e 117 330
e 118 182
e 118 188
e 118 199
e 118 205
e 118 215
e 118 225
e 118 240
e 118 258
e 118 267
e 118 277
e 118 286
e 118 298
e 118 312
e 118 329
e 119 160
e 119 161
e 119 191
e 119 192
e 119 244
e 119 245
e 120 132
e 120 133
e 120 145
e 120 146
e 121 158
e 121 161
e 121 191
e 121 192
e 121 242
e 121 245
e 122 158
e 122 160
e 122 191
e 122 192
e 122 242
e 122 244
e 123 129
e 123 133
e 123 143
e 123 146
e 124 129
e 124 132
e 124 143
e 124 145
e 125 165
e 125 192
e 125 200
e 125 210
e 125 224
e 125 237
e 125 285
e 125 309
e 126 164
e 126 192
e 126 199
e 126 210
e 126 223
e 126 236
e 126 284
e 126 308
e 127 165
e 127 171
e 127 200
e 127 206
e 127 224
e 127 228
e 127 237
e 127 259
e 127 285
e 127 295
e 127 309
e 127 317
e 127 328
e 127 343
e 128 164
e 128 170
e 128 199
e 128 205
e 128 223
e 128 227
e 128 236
e 128 258
e 128 284
e 128 294
e 128 308
e 128 316
e 128 327
e 128 342
e 129 147
e 129 148
e 129 175
e 129 176
e 129 230
e 129 231
e 132 144
e 132 148
e 132 175
e 132 176
e 132 229
e 132 231
e 133 144
e 133 147
e 133 175
e 133 176
e 133 229
e 133 230
e 138 150
e 138 165
e 138 183
e 138 200
e 139 149
e 139 164
e 139 182
e 139 199
e 140 150
e 140 156
e 140 165
e 140 171
e 140 183
e 140 189
e 140 200
e 140 206
e 140 218
e 140 228
e 140 241
e 140 259
e 141 149
e 141 155
e 141 164
e 141 170
e 141 182
e 141 188
e 141 199
e 141 205
e 141 217
e 141 227
e 141 240
e 141 258
e 142 172
e 142 173
e 142 203
e 142 204
e 142 296
e 142 297
e 142 314
e 142 315
e 142 349
e 142 350
e 144 160
e 144 161
e 147 158
e 147 161
e 148 158
e 148 160
e 149 173
e 149 207
e 149 251
e 149 257
e 149 270
e 149 274
e 149 337
e 149 341
e 150 173
e 150 207
e 150 250
e 150 256
e 150 269
e 150 273
e 150 336
e 150 340
e 151 198
e 151 208
e 151 214
e 151 220
e 151 226
e 151 237
e 151 307
e 151 326
e 152 197
e 152 208
e 152 213
e 152 220
e 152 225
e 152 236
e 152 306
e 152 325
e 153 172
e 153 173
e 153 190
e 153 204
e 153 280
e 153 297
e 153 301
e 153 315
e 153 344
e 153 350
e 154 172
e 154 173
e 154 190
e 154 203
e 154 280
e 154 296
e 154 301
e 154 314
e 154 344
e 154 349
e 155 198
e 155 206
e 155 214
e 155 226
e 155 237
e 155 257
e 155 274
e 155 299
e 155 307
e 155 317
e 155 326
e 155 341
e 155 352
e 156 197
e 156 205
e 156 213
e 156 225
e 156 236
e 156 256
e 156 273
e 156 298
e 156 306
e 156 316
e 156 325
e 156 340
e 156 351
e 157 186
e 157 187
e 157 203
e 157 204
e 157 275
e 157 276
e 157 296
e 157 297
e 164 233
e 164 239
e 164 251
e 164 257
e 165 232
e 165 238
e 165 250
e 165 256
e 166 181
e 166 198
e 166 216
e 166 226
e 167 180
e 167 197
e 167 215
e 167 225
e 168 174
e 168 187
e 168 190
e 168 204
e 168 260
e 168 276
e 168 280
e 168 297
e 169 174
e 169 186
e 169 190
e 169 203
e 169 260
e 169 275
e 169 280
e 169 296
e 170 181
e 170 189
e 170 198
e 170 206
e 170 216
e 170 226
e 170 239
e 170 257
e 170 278
e 170 299
e 171 180
e 171 188
e 171 197
e 171 205
e 171 215
e 171 225
e 171 238
e 171 256
e 171 277
e 171 298
e 173 211
e 173 212
e 173 217
e 173 218
e 174 203
e 174 204
e 174 292
e 174 293
e 174 314
e 174 315
e 175 195
e 175 196
e 176 248
e 176 249
e 180 191
e 180 222
e 180 228
e 180 289
e 180 295
e 180 322
e 180 328
e 181 191
e 181 221
e 181 227
e 181 288
e 181 294
e 181 321
e 181 327
e 182 249
e 182 255
e 182 270
e 182 274
e 183 248
e 183 254
e 183 269
e 183 273
e 184 196
e 184 214
e 184 224
e 184 237
e 185 195
e 185 213
e 185 223
e 185 236
e 186 190
e 186 204
e 186 279
e 186 293
e 186 301
e 186 315
e 187 190
e 187 203
e 187 279
e 187 292
e 187 301
e 187 314
e 188 196
e 188 206
e 188 214
e 188 224
e 188 237
e 188 255
e 188 274
e 188 295
e 188 317
e 189 195
e 189 205
e 189 213
e 189 223
e 189 236
e 189 254
e 189 273
e 189 294
e 189 316
e 190 203
e 190 204
e 192 232
e 192 233
e 195 235
e 195 241
e 195 272
e 195 278
e 195 305
e 195 313
e 196 234
e 196 240
e 196 271
e 196 277
e 196 304
e 196 312
e 197 212
e 197 218
e 197 222
e 197 228
e 198 211
e 198 217
e 198 221
e 198 227
e 203 204
e 205 206
e 208 211
e 208 212
e 211 214
e 211 307
e 212 213
e 212 306
e 213 218
e 213 235
e 213 241
e 214 217
e 214 234
e 214 240
e 215 249
e 215 255
e 215 289
e 215 295
e 216 248
e 216 254
e 216 288
e 216 294
e 217 257
e 217 274
e 217 307
e 217 341
e 218 256
e 218 273
e 218 306
e 218 340
e 223 233
e 223 239
e 223 272
e 223 278
e 224 232
e 224 238
e 224 271
e 224 277
e 227 239
e 227 257
e 228 238
e 228 256
e 232 285
e 233 284
e 238 285
e 238 295
e 238 328
e 239 284
e 239 294
e 239 327
e 240 255
e 240 274
e 241 254
e 241 273
e 248 268
e 249 267
e 254 268
e 254 278
e 254 313
e 255 267
e 255 277
e 255 312
e 260 292
e 260 293
e 275 279
e 275 293
e 276 279
e 276 292
e 277 295
e 278 294
e 300 331
e 300 332
e 300 358
e 300 359
e 318 320
e 318 332
e 318 353
e 318 359
e 319 320
e 319 331
e 319 353
e 319 358
e 320 331
e 320 332
e 331 332
e 360 361
e 360 362
e 361 362
